O  In O  In O  In O  In O  In O  In O  In O  In O  In O  In O  In
 1.0000000000000000
     8.4459669306727321   -0.0573458406124699    0.2139066521781070
    -0.0258686061023065    8.2000037734816900    0.6254201095191360
     0.1957826335330340    0.6265026089910349    8.4985915994332295
 O   In  O   In  O   In  O   In  O   In  O   In  O   In  O   In  O   In  O   In  O   In 
   1   1   2   1   2   1   6   1   4   1   1   1   1   1   3   3   2   2   1   1   1   3
Cartesian
  1.2067207417175223  3.0208420810521224  0.9963799311291243
  1.5981384608180029  4.5552686099239645  7.5431601646741893
  0.5470536239174481  5.0650544221323157  5.6981085271978928
  3.6415058358884305  5.7842060943842331  5.3880058603894145
  5.1784596373157790  4.0415892519065890  7.2468491068978480
  3.3567542852446048  4.7736596318231914 -0.3070390816897056
  2.7849579925631698  3.1062736040686789  6.5150875498641083
  1.9388765844939646  1.2073735868473743  5.9374705126742997
  8.4895916349560352  8.7307787157385111  7.6272274341135970
  3.8136685290299139  8.6570701777113186  5.7252139902617305
  8.7257181935985688  6.0101717633612015  8.6722899433529470
  6.0256329947639937  2.8269896545682434  5.7167945774885913
  1.0257946138389260  2.5875751546453123  4.3065830752787768
  2.6899562997457407  8.2153634221530467  8.2882533570967443
  6.3617832845684941  6.9107497857321603  3.2845662670863014
  6.9167540427816503 -0.0944456354890168  4.3134283727070528
  4.6767974755345447  8.0798863154906986  3.0810147721061187
  7.7806329016682030  7.9759031292247347  2.0778523887302933
  7.2357967264667957  3.4723832412734499  8.2019070413433397
  7.6788888973390499  3.7205102043876139  4.8037253072723569
  1.1547169332429414  7.8879252497107624  5.1299983967455063
  3.7176557091200046  0.4651376212925791  0.5846394875770607
  2.0016077074619423  0.1801951762651754  1.8789806642915696
  1.0679470523400276  6.8219610123615055  1.2183595251071615
  4.4032037272561917  2.3914935657509298  0.5291340747644722
  2.2479600846882128  5.5189909540452780  2.6675528872104866
  3.9439878463283295  3.1139320440079779  3.3966061750148788
  8.7183208843963911  0.9371048282925039  3.1966312959187162
  4.3820812662530475  7.1461219684778348  7.1683260463963876
  2.5513355810081149  4.1552944930809828  4.6023924993626020
 -1.1859468611418649  5.1429341535908248  2.9324347631290637
  7.1013334620110182  2.3690320799032643  3.0058063665204307
  7.1232582489598233  1.4134796698170013  8.2082021719307949
  5.3113418590352657  1.5862070020819761  4.0465659758645485
  6.1176138907379380  5.9391604535811418  6.8645236975023680
  7.6565192903401167  3.7869454915668670  1.4709983213907942
  5.4730540686020195  8.3519647268580695  8.6507997645904293
  3.1335728444989561  3.7766194319507100  1.5989865993102113
  2.9186152301276804  7.2517000246489527  4.1103498203959248
  7.9707150170078540  6.9308910143660487  6.5579896264142459
