In O  In O  In O  In O  In O  In O  In O  In O  In O  In O  In
 1.0000000000000000
     8.4585347001677338    0.1287153699655268   -0.0876513116835738
     0.1367405118298183    8.6175416030847547   -0.0234682419738779
    -0.0848175185352532   -0.0188412268509692    8.6701619098600791
 In  O   In  O   In  O   In  O   In  O   In  O   In  O   In  O   In  O   In  O   In 
   1   2   2   3   1   2   1   5   1   1   2   2   2   1   1   2   1   4   3   2   1
Cartesian
  3.5428129708137419  1.6044619976966834  0.0359664895382119
  2.5962973198384622  9.1762827503490918  7.0608571320819591
  5.5190462973395897  2.5491917520274749  0.1858331738736390
  1.6749621878841621  2.5862347264735432  2.8273448321007844
  3.2250767685681341  7.1741140288073568  7.6599961065993512
  0.1446338025014001  3.6333684681527405  1.6314665073612051
  2.3655072643878281  6.5088305276730631  0.9155699194319077
  3.4797585771809976  1.6027139933731489  3.7255321244017865
  5.4934376865352661  6.4240903136920258  4.8588715965456428
  6.8103854396617107  7.5597307907728473  5.9964682987260005
  2.7828475641061323  3.6399718743105431  9.0495033795623581
  1.7720100705032371  5.7690655052677950  4.7823383343750274
  3.5523876987529825  7.0620899589566966  5.2789865935327072
  5.2933483385733924  4.4660640437954005  5.6159744134850031
  5.0737104550214767  5.8666064663994302 -0.1782647781673851
  7.8674267445414472  0.9495175898665420  2.3449323435041118
  6.4799056589196917  7.1599282594586349  3.2070703142130323
  6.5849541718169275  7.6678237556575368  8.1031877122507705
  8.1590574030925538  0.3641106779657167 -0.3619240698495012
  4.8320290745110874  3.0521319481794777  4.1124028427416652
  7.5446044413494162  2.0907569365618586  0.6066030856912348
  1.7987473307444062  5.7238632296506111  6.8942189525569795
  8.0440375173866201  6.4033030573499978  0.6878012990155185
  7.9736148342811148  3.2006175401504882  5.4928380528861593
  3.8617797560277376  5.1373697550544692  1.5665240365038102
  8.3652043152869524  4.8953229752350165  4.3388771556699162
  7.4560274229307497  0.1448326267177406  4.2454328541138695
  1.1185847519263581  7.6177641620849528  3.8884025911322939
  6.4051302267347880  1.9094318873472680  4.9745992848581411
  0.9673305769975289  4.7911086220223389  8.6004392820084696
 -0.6595348013664230  3.5733282761421079  7.6027491230818454
  4.7061409380407735  8.4039805371546663  8.6002526936730312
  0.8345711607526971  1.7746942272028503  4.6763314491093153
  5.5217609717744365  4.4936590280809732  2.7145129039354625
  2.4171820350171389  0.3622859422088717  5.0208923610579426
  0.9122759027288407  8.0240765135776790  1.5082077114616357
  5.6357295982507347  4.1291045157962980  7.6121740786548315
  2.0335585188874088  1.0981425892027563  1.3841678048789585
  2.7975886882791796  4.4155599310826004  3.4236920115854992
  7.4299895986588620  5.3889160153103752  2.4689952033116498
