In O  In O  In O  In O  In O  In O  In O  In O  In O  In O 
 1.0000000000000000
     8.8044271868095105   -0.0598597741361171    0.3602065553940078
    -0.0626664555163306    8.3830945376246255   -0.1321410319101274
     0.3568309921580711   -0.1273940665852225    8.6745146561879274
 In  O   In  O   In  O   In  O   In  O   In  O   In  O   In  O   In  O   In  O  
   1   2   2   4   1   3   2   1   1   1   1   4   3   2   2   1   2   2   1   4
Cartesian
  8.4718625940067547  5.8389116558016871  7.1740471379491462
  1.3306136165458393  7.0124430769534474  5.7956761631085918
  6.6580438514178670  6.4447199982667431  6.2788216175694931
  6.4651573613420901  2.6553898287206912  0.8475365359394031
  2.1365455465906087  5.5832635739653194  4.2958200430592628
  6.3219660394137351  0.5621847306276182  1.8573854929182601
  8.0391536097369123  3.1760358775013220  2.4384871072993470
  4.1595510516202578  2.9476844990140414  6.1360611813518933
  7.2260482364766014  4.1170323168835870  7.9436603082010633
  5.9441175557467050  0.0467738888291487  6.4946759482941934
  7.8191521253099028  0.7935118219419833  5.3898208670323138
  3.9677244058198164  8.4779976809040249  7.4059343851677184
  2.2590774407054131  3.0489730497922789  0.4896252807045937
  2.8642028677741922  6.6809178880012201  7.3419561943831173
  5.3521827805374169  4.6777027962154669  6.5579215271639626
  4.2459771326187559  5.3785438247206354  8.2953833410717763
  3.5484750428444158  4.5775777070365864  1.4377769601168617
  3.3274054617156366  6.3762062791252019  2.5369375342796192
  4.0117156832450576  2.4624818607248549  4.1014613902002930
  4.9899245633790299  3.2182018358922164  2.2342720565464131
  9.0849885809257120  4.4053197871835197  5.6653715128920261
  5.2158776391879007  0.6109304318789702  4.4937154991052255
  6.5296130363377038  3.4442713318756129  4.9477572294989969
  1.0213901561645427  0.2299133359284247  4.6287599699715365
  4.9377729257166996  7.5868824041256948  2.7377707986121465
  8.3142520839452825  7.1974898586518261  1.8499090853470905
  2.5913575774371345  1.0483342509560420  3.4272181801587318
  6.5949926026021117  6.2204641509180538  2.6180486132412919
  8.1586048269135638  2.6274028858469909  6.5460984947510399
  7.0351598721973083  1.5752138769211708  3.6250896635665226
  9.2383316454071487  6.2596090591933020  3.5359458792948941
  7.6748693745734036  4.8737946354534136  3.9088795946524844
  1.3003668709594296  2.3373497269483035  2.1694458467710493
  0.5216744865592586  6.6705910441060556 -0.2429748601574946
  6.8988955383632122  1.4009049529951616  7.8009744274072084
  2.9408653119258634  1.8896449245496547  7.4100016200544339
  1.2456927747537148  1.6774212363186016  6.2884202733988772
  3.8218875179492557  5.8548470836831497  5.5695469426645392
  2.4746350183579646  3.8008571536997322  3.2314658241001379
  0.1224681874783626  0.6509918518394422  2.5504145649801870
