In O  In O  In O  In O  In O  In O  In O  In O  In O  In O  In O  In O  In O  In
 1.0000000000000000
     7.9237019376603079   -0.5029707651602419   -0.0492653117515589
    -0.5073037245410016    8.6459934850000106    0.3940085212001576
    -0.0727202525947263    0.3877006614339483    8.7323418836724596
 In  O   In  O   In  O   In  O   In  O   In  O   In  O   In  O   In  O   In  O   In  O   In  O   In  O   In 
   2   2   1   1   1   1   1   1   1   2   1   1   1   3   1   1   1   3   1   1   1   3   2   2   1   3   1
Cartesian
  0.1414624431497151  5.4358162194592001  1.1987689758871312
  5.3980406776049090  0.4832570913738291  6.1942479324046564
  6.6135641810226895  3.2111389640906065  2.8820818585285899
  4.3206739136519667  8.6580156553051246  4.6583172535245367
  0.0170366298956987  2.2508663060661505  3.9012875187776106
  0.2945936717419865  8.9277162730018773  5.0354706850515463
  2.2128885776363925  4.8928290302733179  4.3151356505294078
  3.9334986376325261  4.1551582719728026  6.0617862066479420
  2.9864351021099207  0.2657968238203799  3.4468545937895154
  1.8544740613058444  3.7922464795043376 -0.6637830633142898
  0.0674313885151359  7.3150174257796703  6.4369240049674445
  1.9461990997595782  6.4164140734913904  5.7884522176652737
  6.2333149963223953  7.6499685877847501  7.2456000091926462
  5.6495817549859879  4.1122605079232821  4.6341615734359642
  6.4540613231064921  2.3182626830452011  5.5391018541663639
  4.5322103213781899  5.4385158764107731  1.6329614959561589
  1.7150996413763007  4.6871324582834344  2.2586349641762751
  1.1165287062530291  3.3860500818170163  5.5001768245117093
  3.8499033602369357  0.9525255896433191  1.4363122087844835
  2.2671814469184195  8.6039179956157472  9.2904961814443077
  0.6577568574932863  7.3544348993383526  8.5171920102804464
  7.5176833372418965 -0.5745906531431846 -0.0079709601140679
  4.1839570488622577  5.2546907602802797  3.6234367494287958
  1.8305218190015313 -0.9966195277663125  2.1331873239444601
  1.2444551329976086  1.6859727094805519  8.4648074270985294
 -0.6730996819838374  7.8082201385811025  3.4774026615182851
  3.4339233246501801  0.7289601844162855  6.9503894868461895
  7.7036221681229895  2.8227099863964455  7.2886527309178373
  6.2038346515754705  1.4192769702526595  8.1082650382601305
  7.0537706028688545  5.6892129986782836  4.8152608774714958
  3.7424106794208378  6.6193100331122947  0.1235681618154325
  3.1435485390159887  5.6715296293891564  7.3675446928429729
  2.3660739463476324  2.7590696434615003  1.2387571436559071
  6.4798220439942744  6.3210195719988889  1.6764814952996876
  6.8737410492475677  4.0205225747142377  8.7487109625018586
  5.7386949035382520  2.0778238448189059  1.2186387790774724
  4.2548648672886271  3.6121631728164783  0.7158571278351474
  7.2082859910860551  0.4983903289380494  2.0504455638665195
  2.0751347691831574  2.2102710133165577  3.2321274732883016
  2.6529398511975391  2.5820058185938621  6.7522615800127355
