In O  In O  In O  In O  In O  In O  In O  In O  In O  In O  In O 
 1.0000000000000000
     8.4415743538295427    0.3137212895864609   -0.3588890237913493
     0.3070197666270705    9.1197312536818522   -0.4650470214682612
    -0.3434880558936643   -0.4576475399388810    8.0731000927800771
 In  O   In  O   In  O   In  O   In  O   In  O   In  O   In  O   In  O   In  O   In  O  
   1   7   1   2   1   2   1   1   1   2   2   1   2   1   1   1   3   2   1   3   2   2
Cartesian
  6.2666882712843321  7.4695208253998988  6.1011814126632427
  8.0133882106436936  5.9354908407671374  4.8097355195046410
  8.0456456918547712  8.5465923266676409  6.0271675334035280
  5.0431765677321536  7.8365130995546455  7.8469510391430584
  6.1080973120120987  5.4777352936104231  6.8565982937722909
  7.9590276587257422  6.7513174914836194  2.1978591133103502
  7.0492074654315822  2.7364115549731496  6.4210912898366574
  3.2713786390133830  3.7531581382963570  2.6227320225305508
  0.3769814574777067  7.4817201333355845  4.4703069874208268
  7.1354219804920751  0.1479622469961481  3.5218055366861765
  2.3493142828242783  6.8623386125892116  3.5273118385599416
  0.1809237863416477  1.0814314779183718  6.7613022878624287
  1.5952032925835060  1.1058863373670200  8.3497653607272611
  1.5234493632777069  9.4104912320556195  4.6135562793808669
  4.1852667948226268  5.6991379298163194  3.7193505381938392
  5.7514866058191494  4.1781190017560821  4.0240639619643863
 -0.3795946347837651  4.3232685032162799  6.8828241797136807
  3.5284091025966147  4.8442255304336035  5.5707623713510870
  1.2917289331533728  3.0381165183924925  6.5371514380812412
  3.0270583026572657 -0.0672575264079318  0.8301931225095526
  5.1189455881811980  3.3372337065894992  6.0505257110797315
  4.2370498734761464  0.4624192837497008  2.5086549425988411
  3.0984064354677314 -0.1335452701120001  4.2712421774957123
 -0.0220695606820035  1.2061300406564077  2.9616107925612014
  0.6283471676470390  3.0865133420515085  3.5909770776685064
  5.8619414505276932 -1.0689141421372639  2.4232719505149340
  1.3752989863560978 -0.2086334893879470  2.2963487782141789
  7.4711293323479060  4.7597166281680074  2.8881115886104367
  1.3994403461142204  6.7493611904699629  1.5691111626968028
  2.3067454348938741  3.3346047578569511  4.7162634631931999
  3.9650671633195316  1.8973788884024971  4.8364161355065507
  0.9017437732114589  4.8726915317410215  0.7504037499537184
  4.2466291994885843  5.5907636666624621  7.9035952719192641
  6.8461328043537844  2.7735901388680095  1.8560242216604810
  5.1493259847664623  6.2268362224057840  1.8928276926329071
  5.0178245391864786  7.6688967915658983  4.3882078390020283
  2.5379988516719432  3.5527671178600992  0.5492918568218760
  5.0158285057136043  2.4968701653264134  2.8355073338216017
  4.4879977173152286  3.9134151421266505 -0.0957416034831092
  2.7502592632481231  7.0831519580665772 -0.0389408293747524
