O  In O  In O  In O  In O  In O  In O  In O  In O  In O  In O  In
 1.0000000000000000
     8.2820728695062957    0.0000000000000000    0.0000000000000000
     0.0000000000000000    8.2820728695062957    0.0000000000000000
     0.0000000000000000    0.0000000000000000    8.2820728695062957
 O   In  O   In  O   In  O   In  O   In  O   In  O   In  O   In  O   In  O   In  O   In 
   1   2   1   1   1   2   5   2   3   1   1   1   2   1   1   1   1   1   1   1   7   3
Cartesian
  1.2012313699866897  6.4188090029980973  3.7666849133568148
  2.9244249752553593  1.7983058736537165  7.9156575452287345
  5.2945421228624729  3.6433153049804265  1.6851879628424802
  3.1968691462953052  8.0158426772744527  1.5911419293680378
  5.2113931850466226  4.0786035737604855  6.0265568547208090
  6.2774397680688558  3.5604633330035012  7.8975577751721238
  3.3249148569326183  5.8447643010402999  3.9871625848566485
  5.4002361598499560  8.0212999398856279  1.9877035973798705
  2.9001387841363795  7.9727282528209802  0.1042224085365561
  4.5437905596951103  5.5664412938987065  0.9282914844123609
  4.7726591153096880  2.0261883383638537  5.3156231331367589
  4.2453460280286590  7.8361825557750464  3.8842512877135582
  0.9360595591940576  2.2792143512588963  7.4375244496148065
  2.8189201398003481  5.7492079682190154  7.8241540491071548
  9.0911114427383595  7.6704998506669417  5.4871290836783384
  9.3159102914577332  5.7644844009868690  6.5869400585002698
  7.2585097586723304  0.4759975926064317  5.7930547683712188
  7.4009067157438553  4.1809239193046519  2.0935053784800934
  3.3559222152782318  1.6268560694995362  3.5972106326489883
  1.3993988980777874  1.2241075727748056  4.4871349914109429
  7.2769660426450908  5.4267970348457224  3.9735124912957507
  7.1002708239003498  7.4896373431505241  3.1830859813616246
  7.6180556598981575  3.5380803012452753  4.9619502385618661
  7.4359682369964677  1.6685037543738328  3.9318509570954463
  2.4429903388821339  3.7973612143634869  3.8981875884721333
  1.7248035746846009  4.1788597232070410  1.7801430187185960
  5.6738478260945806  6.5089202717674546  8.7458748434935636
  7.3208861533742828  1.4700448612771697 -0.2052607695520785
  6.6306638625030683  5.8899421225744879  6.0060514682439532
  1.3346287995595836  3.4906225409860236  5.7215125303034116
  3.3274060945150823  2.6264535908064763  1.5657824053984364
 -0.1052421527488254  2.8906725166150320  2.0968985117687411
  5.6121283183550359  1.7743897560623743  2.7438313576178626
  4.4813020659827494  1.1474537514842960  6.5023896254958498
  5.1833044548507132  4.7335052661190948  3.7191975434195093
  3.9203229896773895  6.1173030040573115  6.0342611930467633
  3.2175439696103649  3.7008824411796737  6.9193227901930197
  7.5591493093035282  5.3999509803705150 -0.2971706689529691
  5.4127536355523365  7.6411458931735456  5.7334837085839316
  0.6122789406127105  7.2960529079824141  1.7134058892205901
