In O  In O  In O  In O  In O  In O  In O  In O  In O  In O  In O  In O  In
 1.0000000000000000
     8.5764853119817044    0.0000000000000000    0.0000000000000000
     0.0000000000000000    8.5764853119817044    0.0000000000000000
     0.0000000000000000    0.0000000000000000    8.5764853119817044
 In  O   In  O   In  O   In  O   In  O   In  O   In  O   In  O   In  O   In  O   In  O   In  O   In 
   1   3   1   2   1   1   1   4   3   1   1   3   1   1   2   1   1   5   1   1   1   1   1   1   1
Cartesian
 -0.7840988843103068  8.6152715479931743  1.4359329645569792
  5.9734044282917420  5.2499203266443892 -3.7746352523801692
  0.4528044464299404  2.0996027094212306  9.6478398417692546
  2.0048335476395316  7.2496636937114811 -3.5582284906641566
  5.4619156949401058  0.8435463125707426  3.4109793423483241
 10.1441904719375700  3.5907114750095905  3.4011246207039205
  7.5179069922968305  8.3052495472878327  4.1701186013801594
  1.8353469698298774  4.2918645494322849  6.3275235022728635
  8.3850697044588607  5.3685803620961217  5.9330683936094575
  1.2239987006939759  5.4605428740309341 10.3662340255556860
  3.8264697549506268 10.1537145893408134  1.5880016136271511
  6.8340328735414353  2.4710563204574001  7.7094436327647449
  3.9337232715535975  5.1862671508960085  2.7207016618471158
  1.7932855449402081  1.7665066235487006  5.7718975359594147
  2.0959545696022741  7.8354492236477880  6.8304894675461405
  4.1575246548433258  6.2823387460967881  4.8688207534316748
 -0.3305476997206966  2.2376979404311288  3.9546241456249431
  5.5509388427924344  4.9320079119911373 -0.2215922600578299
 -1.7495508967573385  7.4293002643440422  6.3711073962575977
 -2.0593736624261005 10.0202319872060368 10.3150302347377920
  7.9229396490399138  4.1363656595923164  2.7438624042477633
  0.8255826504807356  0.6154712526922969  3.2139817043119669
  2.4624343488369802  7.8527456742636641  3.0422201393051966
 -5.9517469252784068  4.4745731596417615  0.1966410167260191
 -1.8521669214489689  3.4160775420645799  0.7938945704749353
  2.0623405747988013  1.2779622146887748  0.2421097667841474
  5.0323143551040763  2.4516959677559051  5.2373888447085131
  3.4821154688784155  2.9382782884196352  3.0137850397276646
  0.1648244480684140  6.9053244985688504  2.2604021004730415
 -0.0608705799441283  8.5276854667533879  7.2290881655023957
  1.7749186997675277  7.9188072482767868  9.0286312024156281
  5.0859878510951075  8.1378785576944583  5.4073734691523718
  4.4952831201669339  7.7039598389438062  2.8124934844980620
  5.2143210744528625  1.0271648141479899 -0.2711087542387440
  3.4590753753159675  9.5629682601075654  7.5294706803074840
  7.5147806822343437  6.0272550067851123  3.8800584706526653
  3.7738116181571582  5.3463073434434145  6.3289998051685243
  5.8677473582302770  3.9064572698429445  6.3621017478368902
 -2.3694796891278735  7.7659620810527095  8.6055926417368038
  4.2497266643990130  6.1353641501878471  0.6931510825622333
Cartesian
  0.0119262537813094  0.0025278092450493  0.0131571653943979
 -0.0000003055005295 -0.0110481193861653  0.0283501821690251
 -0.0103747245515341 -0.0194638597536213  0.0060529938615506
 -0.0011268829663443 -0.0276085879769830  0.0106500465533884
 -0.0041165818788510  0.0059206687530283  0.0019184284885626
 -0.0065734692564377  0.0215917362897682  0.0170789490576691
 -0.0071801820912880 -0.0027774420289008  0.0116419415945167
  0.0009819282013713 -0.0034046057343545 -0.0109300674337883
 -0.0190758953345985  0.0183413917371552  0.0081529905212304
 -0.0033251739425905 -0.0042056543801183  0.0067306778422079
  0.0072984828392151 -0.0062369708129711  0.0124972701010205
 -0.0163251427330802  0.0212849138322248  0.0102696139020876
  0.0192527128727046  0.0107716394790229 -0.0186970835945545
  0.0217880849439702  0.0025618444859226 -0.0123476447968111
 -0.0039098104093782  0.0066154059852979  0.0002247267463765
  0.0020252221834911 -0.0029801784019343  0.0087927075199124
 -0.0031214354994451  0.0030028749563188  0.0028484108352494
 -0.0133545262721822 -0.0051494924003174 -0.0039512079829211
  0.0023134956193211  0.0069067605624665 -0.0011719946475937
  0.0001727030082162 -0.0129882407333265  0.0312236205839767
  0.0133744167884490  0.0126362509891739  0.0060732957255506
 -0.0185349392629093 -0.0080610008678256 -0.0193558615712967
 -0.0084548490921753 -0.0055923887944852 -0.0041350458203479
 -0.0118090624711506 -0.0017615147310104  0.0245564503676120
  0.0082550221309887 -0.0030239729806006 -0.0044866471424701
 -0.0052830445133197 -0.0047425715024878  0.0137353457932973
  0.0096291047958997  0.0256168681266340 -0.0195403576429283
 -0.0015691717600090  0.0110634495451895  0.0007460967543920
  0.0035444047812166 -0.0023865388502299  0.0400064644631493
 -0.0128913500096552  0.0139207352256658  0.0048663855462748
  0.0290562290357584  0.0221262638800600 -0.0086806797805233
  0.0034150883124261  0.0052020153793184 -0.0063035906323267
  0.0039227590429631  0.0134211572438091 -0.0010303499519077
 -0.0031321766200225  0.0059310564771000  0.0028083695279374
  0.0056128399088518  0.0011204181226956  0.0026192437487411
 -0.0013898101916048  0.0136423369786789  0.0051351421627840
  0.0124179924528471  0.0230318531066640 -0.0093814357125290
 -0.0033278913639530 -0.0029519216133721  0.0008067515640972
  0.0398444541845004  0.0064798149044746  0.0112448208024082
 -0.0005343807443697 -0.0026099640978446 -0.0100014534122662
