In O  In O  In O  In O  In O  In O  In O  In O  In O  In O  In O  In O  In
 1.0000000000000000
     8.5764853119817044    0.0000000000000000    0.0000000000000000
     0.0000000000000000    8.5764853119817044    0.0000000000000000
     0.0000000000000000    0.0000000000000000    8.5764853119817044
 In  O   In  O   In  O   In  O   In  O   In  O   In  O   In  O   In  O   In  O   In  O   In  O   In 
   1   3   1   2   1   1   1   4   3   1   1   3   1   1   2   1   1   5   1   1   1   1   1   1   1
Cartesian
  0.9677106335497295  7.2165208970313337  1.4482069838252973
  7.4305661312171960  7.6660889899014455  0.2735607964553908
  1.8570412130634166  3.8335143344083384  8.2348478216768726
  2.6775902390716335  7.5125927941747257  2.6229027916892078
  5.9918685116343209  0.5948102467503718  4.8196671619465574
  7.0444187042831850  1.9759478171830771  3.4345882151848062
  8.2529202644671020  7.8717752404410772  3.1248646753865956
  5.5438854404678093  4.9983349721989043  6.1706711740947613
  7.3800113101916596  5.0688121408394897  7.2393026306295347
  3.8882498862780994  4.1162631160334495  8.8493815480706477
  5.2308423397092181  8.5174938264143627  2.7675118549333790
  7.8821611209081253  0.6705657195022178  5.7734031375055332
  3.5340456170462677  5.0480415133581005  4.8773146996760417
  1.1420867268573753  3.1836608254488707  5.4858825988942517
  3.3700167607912901  7.3612434351270233  6.9100138780327365
  5.4460631002920028  3.3876277989491812  2.9940504654131308
  0.3768686130494311  0.1796523527074025  7.4568504685563592
  6.3323139003677076  3.5002431983025253  0.9714856557183408
  0.8159521437948382  4.9526098916740624  6.7039429391233814
  0.8163470251125250  9.4477413415630522  9.4414793330735449
  3.7180229089633499  2.7012646700540039  1.8381925856266077
  2.3587169403390855  0.6023817152321771  6.6058504176772850
  4.4068147791899879  6.5711481670924838  3.4512745149784432
 -1.2672434153385428  2.4517958109220452  0.5883969058259838
  0.7296978965596421  3.0842375520341183  1.2974210759718920
  3.1653101601860274  0.9674105085724884  2.8309127498765636
  4.3427780247449794  1.9749580357592502  4.4617717612810779
  3.0196136857681335  2.5414386831419060  6.0630941846515869
  0.0376416729141641  5.2299536469749235  1.8785130600795754
  2.5063094711930454  5.8815224112568538  5.5593977935404970
  4.6614063345177872  3.2424811496782655  7.0783495691172389
  4.9487851373173140  7.4422157633560433  5.4167452604689217
  4.9008771359105534  5.2750783470646905  1.8636362821162322
  7.0420715365391491  0.5406407730948403  1.7469988738999704
  4.6749867785797390  5.9789872619436375  7.8814883789381982
  8.2955464287413019  5.8596844793694283  4.0118526897438143
  6.2400568872647186  5.0093350221550228  4.1980406873533296
  9.0717628683331597  1.5628919137509463  4.1966900445695092
  1.4568633736782508  6.8538212469539248  7.9047853858423087
  6.6962285578844600  5.6853174751520381  0.5740129243378890
