In O  In O  In O  In O  In O  In O  In O  In O  In O  In O  In O  In O  In
 1.0000000000000000
     8.5764853119817044    0.0000000000000000    0.0000000000000000
     0.0000000000000000    8.5764853119817044    0.0000000000000000
     0.0000000000000000    0.0000000000000000    8.5764853119817044
 In  O   In  O   In  O   In  O   In  O   In  O   In  O   In  O   In  O   In  O   In  O   In  O   In 
   1   3   1   2   1   1   1   4   3   1   1   3   1   1   2   1   1   5   1   1   1   1   1   1   1
Cartesian
  3.6798822928683261  7.8888130219196588  1.2382993635770396
  5.4383127980658408  6.6853795678678516  0.4426131520215643
  0.5892211903131009  4.2720146717172938  6.0784166334968353
  2.9089126715564402  6.4309037944051779  2.7740273241580331
  6.5790420750325440  0.8455955805666731  2.8729623602700927
  9.5512754156610757  4.0232828310969593  3.0027748765453981
  7.7700724270701471  6.5345885498308718  3.1453067522913098
  7.6018738620633188  2.7971953171765254  7.0489714562228141
 11.0429357018560133  7.0644804530371639  5.2026731107555104
  4.4381112135305019  3.4261640232099020  7.3095893039450095
  3.2139499806620799 11.4781416751800283  0.7115176499150104
  8.8248711209149100  0.3950789638172302  3.3794418139541533
  5.2717525062618229  5.0030396013505776  2.3148429926455485
 -0.2702155189588300  6.5471466562239096  6.2407469614034357
  6.3786869285358456  6.2374236912951053  7.2435338449257278
  7.5355628963844694  4.2148915336862602  1.2327457322624564
 -0.3912215637104678  0.1478264586458337  5.3732283018717872
 10.5173809744501412  6.0891042870448517  0.1240434125059196
  2.0123371237187579  5.6968309307636282  6.9013741727112015
  1.5392206322050710  8.6931286392326417  9.3753897277082157
  7.0387995873107965  1.8330341312439444  1.2377154236722376
  0.8069959791798923  1.7656940544889026  6.3043438636165252
  2.5327495440281291  4.6183692969418528  1.6667898919216575
  0.3675241880931466  3.2859421170458116  0.3491401587084262
  1.9827998418448267  1.6383919174966703 -0.3573389962597454
  3.8457848379753261 -0.0902790039644158  6.1420336212740692
  7.1261989424894177 -0.3942924965718629  7.2209514289040531
  4.3188196067600346  2.9116685743271011  3.5784099785342729
  3.2830563763282066  1.6390380398261299  4.9085053119011590
  3.8019532802371807  4.8271720813926420  6.3691578970194369
  6.5727531986772609  1.8046729622724951  5.8531241366971436
  4.4721434947929417  9.2244502469984457  2.7942645710812539
  5.4954139027523592  7.6824145458458890  5.0033476416734342
  7.1525370332851095  0.0094143751154789  0.5525855606435794
  6.2622348174644218  4.1470389261133187  7.9827791965686217
  8.5722178161096707  5.2882408641412972  4.4333279425267396
  6.3353923674672483  2.8499109825111937  3.4465959007445459
 10.1911665644534395  2.4088316721012419  4.2306317889567051
  3.9582270534038497  9.6934737758003351  7.8038897822368405
  4.8120595767204346  6.2529315377321764  3.6334612863836049
Cartesian
  0.0001139907973614  0.0026102570519358  0.0033895170132382
 -0.0112873748498195  0.0069919517825696  0.0194908399858819
 -0.0029093689660037 -0.0228342688123941  0.0089970625120318
 -0.0152659259237950  0.0239897383451572 -0.0062200201009366
  0.0030422809820921 -0.0033419401185954  0.0069009187244070
 -0.0138755014243295 -0.0021464060927878 -0.0083948593103464
 -0.0029539685023961  0.0168212012896277  0.0112227259400335
  0.0026923267180746  0.0035716363214614 -0.0090008575510523
 -0.0016079763682436 -0.0079633044460021 -0.0013592749229648
 -0.0025095489646939 -0.0056832700402867 -0.0007752841665329
 -0.0121811407831241 -0.0024949767351782 -0.0176438691305637
 -0.0069341378016712 -0.0100254133236985 -0.0028213874592232
 -0.0109257652807063 -0.0088431115125545  0.0015343317589944
 -0.0016293754450529 -0.0074346742744606 -0.0233357123525795
 -0.0039628786883615 -0.0078917013833095 -0.0012930130077953
  0.0057595060779016 -0.0064787826382953 -0.0028600479376893
 -0.0089782975294630 -0.0009414598890268  0.0041322485790475
 -0.0083501945870118  0.0054475701831823  0.0007249125928175
  0.0016244824977333  0.0127815864231271  0.0006986012510601
  0.0220447844951267 -0.0136352886047257 -0.0030919857866505
  0.0148572285900621 -0.0260044904550423  0.0199522168723585
  0.0170150655595435 -0.0046802559770349 -0.0208280920728941
 -0.0017909074218400  0.0009009163350887  0.0011205478542332
  0.0078692755616438  0.0104340823994417  0.0204150543798899
 -0.0021295212252795 -0.0049800047803879  0.0046015586302181
  0.0049805602799555 -0.0051329131507525  0.0115691471691520
 -0.0092724393434987  0.0215045923831360  0.0010141282415662
  0.0023784583918758  0.0091829150963836  0.0016789759603258
 -0.0032976167541446  0.0027655902899627  0.0122401108966009
  0.0004431799489699 -0.0087150711582451 -0.0137740193087379
  0.0169977083132362 -0.0133380175790416 -0.0136219000250583
  0.0140384749712229 -0.0094733222837448  0.0135434012409446
  0.0175774114194523 -0.0284349695176559  0.0107298101398746
  0.0139347349809276 -0.0005376043231478 -0.0088637600511305
 -0.0170756598860891 -0.0072220603081512  0.0122304684576636
  0.0001955161276269  0.0039670301100007 -0.0056715684616151
 -0.0174103383797029  0.0185366085382126 -0.0026082138887782
  0.0056699613050689 -0.0076360487614137 -0.0109606028565661
 -0.0160513188347985  0.0237052055823065 -0.0033649880917797
 -0.0020162061096076 -0.0000284806258425  0.0041404210809354
