Al N 
 1.0000000000000000
     7.4939010579357159    0.0000000000000000    0.0000000000000000
     0.0000000000000000    7.4939010579357159    0.0000000000000000
     0.0000000000000000    0.0000000000000000    7.4939010579357159
 Al  N  
  16  16
Cartesian
  4.4381699416617826  6.1179764910822030  7.4103574686005151
  3.0505818559110658  0.5516094699132204  6.5596279831030264
  2.2730362005775571  3.1431828947154115  6.6782584406619314
  6.3011559780363466  7.6824047178080939  5.5287236266034601
  4.0330539099680482  6.3109072851879597  3.3061933627938815
  6.2262714483384585  1.5338527094192735  3.2593824811690681
  3.7245025454398331  2.8092567335965883  4.0883150455853521
  6.9956329459759967  3.2399179545725159  6.1321328724013719
  3.6769411469726556  4.0653727283166718  1.9352565468668237
  1.5112348387993306  0.0994637915785894  1.8451524995791124
  1.2095597307169204  0.8948194512467083  4.4247150100025419
  0.9364614459601290  2.5676559470649507  1.2498683218913402
  1.9365477360564229  5.6323941501519492  4.7704312914995954
  6.4291526608833491  6.1843626666096601  2.2478982268021053
  5.3009368956266059  1.8679196849303001  0.6931523672017695
  1.0758699708950024  5.8077318153201070  7.0796094795667361
  4.9966707690426917  0.3889104172304584  7.0167532826579331
  0.9931045986156599  4.2782148572588348  5.8499716213205852
  4.6692269115221210  2.3620752380315815  2.4664203644745464
  2.2700099531158697  3.9080346507338186  0.8500203401550532
  0.5311875096789986  6.9907529965653685  5.5555145808339965
  0.5277088161663879  1.4923578156220652  2.7064850152730937
  2.3781610593741802  7.0625740830393209  3.4663634549923756
  2.1134880486430916  1.2969812841348678  0.4194389171313393
 -0.8302578795330072  1.9275206712285806  4.9695638155021626
  2.6901888576431574  1.8869401485070068  5.2641857745080429
  4.7799313009659006  5.5627065971624985  1.6069863415426642
  5.6656227982695171  7.1890068851687268  3.6561059675716203
  0.3399435473081791  6.3323718856672722  1.1771668024947159
  6.7891146211071529  2.8299817211171194  7.8856790896068745
  2.8918580755811631  6.1839731742560771  6.4625033120371915
  3.3219068783645018  4.5494054243765829  3.7752714190801262
