Cd Te
 1.0000000000000000
    10.7842022928759427    0.0000000000000000    0.0000000000000000
     0.0000000000000000   10.7842022928759427    0.0000000000000000
     0.0000000000000000    0.0000000000000000   10.7842022928759427
 Cd  Te 
  16  16
Cartesian
  7.9897636411320718 -0.0154142411474072  0.3694768267984724
  0.9462469445035326  1.8317077339607741 10.1543824459940453
  8.0012889508584344  5.1429270835480363  4.6412564472885389
  5.2285139767102145  3.7989205031236688  4.5143205113447271
  5.1086035718226643  7.9901368679613629  1.6288414600277352
  3.2921194295369234  3.8104713487586435  7.2725658561791198
  4.8263896202584080  1.1321531450669631  9.7484866800638468
  0.5394618786423157  9.0023908276700144  9.8455867978113236
  4.6039395896349378  3.2805106157366803  1.3106091709282630
  7.2376863265073634  9.4700466465742927  7.3754755889965722
  1.9323597980706384  6.2728196079637497  5.0134282959326626
  1.3371269860951709  5.7179617584994071  9.4213889738810881
  6.6894371763846960 10.7584794148956533  3.9514561493790126
 11.3078431025026926  8.3651875307935590  2.5119527003747790
  8.6533727190006147  4.8022326345156126  8.5121214338499254
  6.8806477652467359  2.1854110352818306  7.0788432627078439
  4.8252742717796977  0.5920676032219063  1.8279954125803792
  0.3941137985940752  3.4769605090471907  7.9444821634105649
  9.5532388427908614  6.6952616047891089 10.3485086533924662
  6.1306888653585725  5.3943690834502558  2.3058453077168468
  0.8379338355510582  7.6017383277083148  7.2992293355882110
  6.3704447853722543  8.8476412186175057  9.8660290860873729
  5.2183406642179531  9.0628540770228412  5.5427771003993289
  6.0937942924517019  4.9941929915988155  7.0724565518508786
  2.4994771199647867  0.0729557390410800  8.6727200063784462
 -0.3627379561848780  5.8436677298355386  3.5078216599075698
 -0.2043952339366673  0.2476668800476460  1.3797065399692872
  2.5768166609732752  7.4621303185236041  0.6292808869408857
  2.3942974364473599  9.0652903417654844  4.5146967231932065
  7.3678689002858277  2.4636598777057128  9.8999228601078872
  8.2353098848881814  2.1929549517667843  4.6230463346708728
  2.6021547621492989  3.0112425625500778  4.7199774744694585
