Cu
 1.0000000000000000
     7.7667456358186389    0.0000000000000000    0.0000000000000000
     0.0000000000000000    7.7667456358186389    0.0000000000000000
     0.0000000000000000    0.0000000000000000    7.7667456358186389
 Cu 
  32
Cartesian
  0.8306594057576920  6.6921125689875387  4.4661811096360395
  4.5098228270409573  4.6869278826711964  4.0732006157216807
  2.5275664116672600  5.6775069155437423  2.8997171806343718
  2.4091575382494343  0.7029990753789701  4.0582059403804216
  0.8642941865742824  2.2620202920998516  5.4068063992470581
  6.3648190115748058  3.3496920106082100  5.3471738062406144
  1.4531069060686104 -0.2651376361566180  1.6392739963745746
  4.7901266442930179  4.8864460536228060  6.7393108695307848
  6.9153492011886035  6.5110588981268753  2.5658016022685679
  6.2944269630018814  6.7999830606356877 -0.0838839446885898
  4.5703378554267839  7.2414256104212686  3.2089718882535840
  6.7472536904645786  0.7719812839376941  4.2958291796345467
  5.9334552925058786  1.0205222610778490  1.6364964087032385
  0.4744828114794499  1.9236719276242646  2.6311673628803649
  4.5844182286492163  1.9023257330233609  4.2586821270202577
  4.1868607215905929  2.9737871443530697  0.7476145803454997
  6.6256417100801865  3.4462600259046905  0.2072345178976369
  0.0945330564920350  1.2389488859209903  7.8378818927942415
  1.5989654326240941  3.2526257384068766 -0.0159484103746994
  6.2804705600813593  6.0913512324368622  5.0417483013488873
  5.5934192795838600  1.3473818276314642  6.7548763323805927
  4.1174964054701766  7.2331943253472941  5.7300830077176617
  2.4650265755687419  4.4278909431550320  5.5109564000353828
  3.1809221420241962  1.9251013673001705  6.3501669848666848
  2.6334046527457948  3.1528123980859548  3.2550559215156030
  1.7824646668468231  7.6144063577487469  6.6479309182413591
  6.0652267775122279  3.3007488790541943  2.7055520792997254
  2.6215315293372163  5.5646945436693160  0.1193836489979034
  0.3913203811181335  4.3332674816807497  3.8750878601649514
  0.2732199491050024  5.0790584715594997  6.4999190271507095
  3.9121963866083864 -0.0798460624604349  0.5048511145773559
  4.8185256913967205  5.3297399267928443  1.5254421951162331
