In O 
 1.0000000000000000
    10.6057861204794133    0.0000000000000000    0.0000000000000000
     0.0000000000000000   10.6057861204794133    0.0000000000000000
     0.0000000000000000    0.0000000000000000   10.6057861204794133
 In  O  
  32  48
Cartesian
  2.9980667824064327  4.4336603081406745  4.5596283149980552
  8.7986790052545949  1.5609376024650556  5.8495403777699240
 -0.4981299700435637  4.6228725070841179  5.6547279013124490
  8.4459140561496806  6.5148242495289663  8.5502286606660434
  8.0589986865468735 10.0634305160088715  8.2110133470965607
  5.4222400088889859  0.4897255553184726  6.6196734783665381
  7.4186450721523931  6.5621001353625887  1.8330912124158685
 10.7026682482804176  0.9262330102244478  2.4687620846789948
  5.4837196888859445  7.5856617655088980  6.7921776982205939
  3.0883003168081333  7.1756757897359762  9.2319046755345227
  8.2237921948127539  3.0796544544935358  8.5008255376020969
  5.5095350058467734  5.1908427391926688  9.7165280755167256
 10.3682753334530968  9.5239319368620041  5.1299828057786598
  8.9026503276863274  9.1848622381095453  0.5706271499999909
  4.1314514447864719  3.2657169208015393  7.4089212105961808
  8.1351999135551516  3.5340883328594757  2.5847474706158042
  7.0106759010681170 10.5506616720671786  3.0263122294717402
  4.6891743199491467  7.5576861053063418  3.5939827540324081
  1.4577587127827618  1.2271088713578309  6.8802402128513158
 10.1364775870905302  3.7648324801026942  0.2747598148245720
  2.3488864215355272  2.0031379158484990 10.1622761150611041
  1.7777663159975148  7.2810034597591899  5.9746359705603425
  4.9111388639954336  3.3658424258659787  2.2703442093727313
 10.4621545910607363  6.4521273373906327  2.8383292426417346
  7.0524221006660346  5.2299740827374297  5.6265271908426415
  5.6868014213996574  1.4166786265312097 10.4045188129532651
  3.3576756815460955  0.5750263442415614  4.0607249303924506
  1.3129287045541189  4.8360627155612974  8.4002612281707894
  0.7254997884288807  9.2296882400840854  8.4965363074613531
  2.5646444881361723 -1.2101742370213864  1.2646949911142966
  2.5163153935496219  5.6125671693578258  1.5225279325676939
  5.5960907917588054  8.5878676633164694 -0.0265570873822646
  6.5796295877884656  9.3572268449623817  6.9228254139984298
  6.4956202246427379  4.7395935202568547  2.2209368172462751
  9.5961093395722123  2.1163830271918069  9.7119531110015718
  1.5123821616222748  9.3712267813747339  6.5116932135404300
  2.1375946656292948  2.9468758849016394  8.1399771029871175
  6.6400017521473682  3.4190517079555942  9.8203230612439043
  3.4377871301046015  9.2412396613575378  3.1724723958780690
  4.4808650394082932 10.2954654591781711  0.4551997935509214
  0.0539189666366481  2.5081930584895025  5.8995449321916782
 -0.8563574284831537  4.8388395301728071  8.9328450932912755
  8.8417512923919617 10.7426539257348495  1.8656167718997718
  8.9991536327260899  7.8721078150365065  2.1657205215431135
  4.1719837180897672  2.8870420882071413  0.3203115762141076
  7.1773742951963868 10.1433339022704114 -0.4625255155897804
  6.5790297701836105  1.9274704801779887  2.0198102831724833
  6.3423630963170163  7.0402504664688426  4.8358895530124091
  1.5094389371289973  7.4178619488224848  1.8180947245735384
  3.7733585463745891  7.2703058625539256  5.5512887903648442
  4.0670383793064779  5.5097869784730751  2.9916226045115955
  1.2949733604031239  6.9575915812511919  8.0800992979121773
  6.4636775500384740  5.8819744121342881  7.7608432181276683
  1.1130964461221335  0.3143215954191854  4.1676884308595099
  8.5755917733447937 -0.0490055960680846  4.5486971192545571
  1.3320142835626838  4.9422187904555726  3.2693783002106787
  1.7102981793736003  0.7564609909379874  1.1643375706388319
  5.5077701535805872  0.3416524302839457  4.4622396519356480
  3.7050260642227806  5.1507107567094357  8.5216328549483276
  1.5604034935680107  0.5238323940394473  8.8363559546566322
  8.1747728489775646  3.5819099517781909  6.4209014991705917
  8.9624784225562220  6.2417072873994233  6.5495204467304307
 10.7993875862737081  7.5645709170555229  4.6481322077499252
  3.3868706688371479  2.6166797075971502  3.4359854992589502
  4.2309807249490650  6.5173715991990262  0.3332918140008935
 10.0078436791027183  2.8025335337762134  2.2157780021253997
  3.4317415190707417 11.9291998144719926  6.0804237465524444
  7.3909037919213638  1.3066143940218289  7.4071573025992148
 -1.8651110621561140  4.9923940393122308  4.0787112796486733
  1.5570718943052233  5.0461628828941079  6.1268212618670415
  6.2140762457802969  8.4518845114899523  2.1697367015759328
  4.8911648104124152  4.1669702955274310  5.6858072129272337
  9.1797177127785456  5.2665205654598690  1.3655496054449139
  7.0362519707615832  6.8494748397722018 10.2955565029274325
  1.8431627605913175  8.5887591837315540 -0.4852474751600441
  4.8381781675692679  1.5249271387912713  8.3962558896408588
  9.3467647134079836  8.4718500799727927  9.2127081025543003
  1.5948598840572568  4.2679983183947918 -0.0025766727686014
  4.7007966951571429  8.2982395272885974  8.6379437056501605
 -0.7939419433196471 10.4299360634766209  7.0916468244520576
