Cl Li
 1.0000000000000000
     9.0284011998177860    0.0000000000000000    0.0000000000000000
     0.0000000000000000    9.0284011998177860    0.0000000000000000
     0.0000000000000000    0.0000000000000000    9.0284011998177860
 Cl  Li 
  16  16
Cartesian
  0.8540810944980384  6.5697653170190211  7.1605357435963297
  7.5151379393399740  0.2794029131634185  8.0314729178623754
  5.6603524767363922  1.2673545250754321  5.2530234971580700
  1.2951721911148546  1.1693594715827373  5.9735100499121341
  3.0317479614804297  5.0762650064773434  0.9442454079209452
  0.7768358278154981  2.6689166931791219  1.4060755775914835
  6.5783130554538882  6.7271034127352722  5.5278375734738230
  2.8363039455222752  3.8007119484024336  4.1195797185730694
  4.4781311844528675  3.8402975243757913  7.1239275150389201
  4.0654443451711710  7.5659702961717290  8.0542084754675152
  5.5404963619353360  2.0855902015854202  1.5082408592842218
  7.3500974327518094  4.3829364921255669  8.5453929872902883
  2.8715701677878993  9.3084635039025692  2.8557197784553097
  5.6881596791027178  7.1994536923314563  2.0297328585753278
  0.2477858834744333  6.7359440834848412  1.8348756753541711
  8.0801474230646555  4.1310847954488565  3.9776739669213255
  3.4838206799423137  2.1740854942409156  5.6372824578613301
  3.3278666245681707  7.4352713361088334  1.4468296877690210
  5.7273735951418869  8.4943390836615205  6.7199749481451265
  8.8420297694519014 -0.5970901481430015  6.1528992418742021
  7.4000480692274611  6.3584377187359040  3.3191506583532808
  1.1535705353101977  4.7717130206816760  2.8811568868619042
  6.1134714318835561  2.2522173799026031  8.2144683036452975
  9.7088840382504067  4.9604280922968140  9.0261256079550094
  3.0706093540941093  5.7535783233724294  6.8460126622787119
  6.6559955618334792  4.4166030653174548  6.0761840087400643
  0.2099613450115674  8.0738707341638030  8.9751026538172702
  3.2700982742888445  2.8006627315071859  1.9380274836404916
  5.2829297425035557  0.2995519883801054  3.1247239348180820
  5.2893112599528953  5.6683791080709618  0.0881465664822155
  7.5450615888926693  3.2310560073642245  1.8157192666644835
  1.2599062152788245  1.8151397118756889  3.7437621696679297
