O  Si
 1.0000000000000000
     9.0621103926592301    0.0000000000000000    0.0000000000000000
     0.0000000000000000    9.0621103926592301    0.0000000000000000
     0.0000000000000000    0.0000000000000000    9.0621103926592301
 O   Si 
  32  16
Cartesian
  5.7880373608905087  2.6748025989415831  1.4795964932776706
  7.9645229169760619  2.7170144065564545  5.4365444994121415
  0.0507013180299873  4.6095517543585105  3.8798599302469627
  4.0279152875978648 -0.2418989429249646  5.5865402432220383
  6.5949048361644822  9.3233746413683125  9.1856844085796254
  6.2904383009004707 -0.3231574353662420  4.0946359784486335
  5.0633082783829764  1.9878795541354672  4.4887181465696546
  0.9540158884959853  4.0205970776811233  6.3271846175845914
  8.3967057565960257  0.5150520092280204  7.1728145043499465
  3.5931474161276222  3.5084482007311220  6.3549594725125731
  3.2711828764768702  7.0653104850355710  4.1099207079824858
  2.8185804090468047  4.9295019004195373  8.7532257431833642
  1.2392079940912202  8.0424988048290338  5.0524994517386013
 10.6108505910143656  5.8088970192863094  2.0185479752597697
  6.2134940427164214  9.9319098030186233  6.4747271688531773
  1.6916977700288356  3.1171835431491814  0.9735385924214661
  1.8887955799801097  1.6377182146181233  7.2225732068252997
  8.3837650658526588  1.7779327076070359  1.2076805355088225
  4.1916833595737337  9.9957857503047585 -0.6624508071991997
  2.4162125532768162  2.5472880434899534  4.5612953874981228
  3.1010103716722419  6.0461974514745265  6.2953453412885478
  1.7259579427114771  0.4853839155836630  0.4473755112289250
  5.8481668650661032  6.3851416769498854  4.9352582631229431
  7.7161705983510931  5.2492499900234835  6.1708702369568451
  5.4201641320051417  6.6660223161370205  2.5640249459214730
  6.6419759995752994  7.4005206366847336  7.2112641020640256
  8.6378196332730468  4.8462278555162595  1.0558787921449382
  5.2720111252853323  5.1713112995034312  7.3783121106281149
  2.3633388360521184  8.1434684576921388  7.2551393461462901
  7.1516660422065925  2.6499710495833342  8.0981306210954003
  8.0782502084720527  6.7965899242229577  3.0466249942992687
  4.2840015978521668  4.4971537479515096  3.8695421378761958
  5.3064154394197178  0.5137660811718523  5.1061563428645815
  6.7910159392976084  1.9729409134158780  0.5545645094655738
 -0.3823954250985510  4.2197360411666098  5.3851069664882116
  4.4808627611877831  6.1017843892646795  3.8457351587249931
  2.7533477503747492  0.4372648049351675  8.0916827976024113
  1.4230405352120283  4.7440269545824423  0.6949930577600851
  6.9906967721813826  8.8667417940033832  7.7170482002905496
  6.3395204177522269  5.9992877084789233  6.4883409343706111
  6.6228374245649890  7.3115739460142652  3.4457311640527699
  7.5859085990185022  1.8895545386138028  6.7640426853549700
  2.7383302614094158  7.6944529625228890  5.6783225962377140
  3.6347658997322467  5.0041482934840777  7.3700732315406006
  0.8622997121731661  1.7484592446563862  0.8647223403819018
  3.9632393469751994  3.1382232286112561  4.6677465664051594
  9.0402716039343787  5.5544527240053707 11.5772346862968050
  2.0206356522542719  2.7862973817461829  6.1666543061544949
