Si
 1.0000000000000000
    10.6915028233292198    0.0000000000000000    0.0000000000000000
     0.0000000000000000   10.6915028233292198    0.0000000000000000
     0.0000000000000000    0.0000000000000000   10.6915028233292198
 Si 
  64
Cartesian
  9.2552074849588379  6.6223928444897044  3.1625144762127801
  4.9829259208972854  2.6876053614603643  5.0069352713735862
  3.8367261161895820  0.7913934952033550  6.4832558519219470
  4.7321749513565736  2.2180472535207967  8.1130027166038801
  2.6641659039334398  3.5006605997694327  8.7862310036200650
  1.8177710252236974  1.3019680956247539  9.3296669250786977
  3.7595752432831748  8.5752444694020316  4.6234164096503108
  3.9372747385768130  6.3052435223433489  3.5937853150788177
  6.3071406841287851  6.2099243518246183  3.5840053572474453
  6.9427936682133380  5.6571790125317936  5.7771669660824632
  7.9459159212879724  4.5401856696110201  8.2975917763476872
  9.1446439733724745  5.8818313359112944  6.6204410105088849
 10.6204487608146270  4.1740110169985805  5.7277887002843180
  9.6570280997946760  4.2157341598834694  3.3887450805980652
  7.8761273152309883  2.7493215990877911  6.6857399258573338
  7.3282332970041741  3.4108576721534307  4.3613047575095942
  3.3746208176194643  7.9471113950917989  9.2194973150410746
  4.4896716451142433  9.5117691938857956  7.7385654332737213
  6.0421070746951671  7.8885114172280311  6.7102595629452280
  6.1459434996777924 11.3626146834384940  5.6323991712153054
  7.4871073989607977  9.3778836058408910  8.0206295407510790
  9.8251031415457089  9.1383864611601719  8.2530308549803788
  9.5813921613401050  8.9141621597877112 10.5631327152331522
  9.6012399807872271  0.4798995644971313 11.3979248051928881
 11.1432483796641559  2.2041662996182105 11.0541303885162687
  9.4590339166281776  3.4158615354505684  9.7904862129235219
 11.1354741123285272  3.9026463915850611  8.0839238498007013
  0.9129775509762261  5.8857773197172820  9.4054018366054706
  5.1747434868872304  4.3113586424171544  6.7343357873390568
  3.8285375515495468  5.6736140104679160  8.4144677307305500
  6.8980939293916039  1.0291233586923219  7.9882062254101136
  6.6566464339730640  2.5214923599105492 12.1028687897044787
  7.8458743492315559  1.5801108447545698 10.1450654941641929
  6.0275956324463831  8.5431702929505597  3.9163054299750120
  9.6503258808772046  7.9444584986057620  5.2229838078895954
  7.0162901688306727  9.8059146855944732  2.2496821247212369
  0.6527939403540106  9.6388961186410569  6.0670392620279880
  5.8637647689050798  6.9706722604234157  0.0771647896293781
  0.5651756181733152  0.3840853041537464  4.1789730736321840
  7.5119379946688083  6.1417618105734464  1.5694995589231215
  9.2561207308766900 10.5013262384610080  2.8986851315636297
  8.3036622288300403 11.8512217692298645  4.5159303971822862
  0.8529499501072237  7.4041235849575253  3.6662704684337535
 11.1997472862035572  6.1939898934157709  1.6134301859475171
  1.0351106344564531  3.8543463447652320  1.9561500688035616
 -1.2421174002189677  6.3055550374542140 10.6122965869178358
  8.5087470911709939  4.0459562212824061  1.2396230828534733
  0.4221418741927532  7.2127315955020990  7.4087174473458681
  1.4675106108642089  5.9684123834395377  5.4685267039565968
  2.5977722204864868  8.3851678224929476  6.8167285138693252
  3.6995799265842733  6.1834321316328928  6.0753960257776942
  7.6629785379795976  9.3393581904812315  5.4793511634767071
  2.0346800750460083  9.4295698488592326  3.2613035661384973
  2.9080254012737381  9.0828391190043440  1.1279481195869148
  1.1740175637774191  8.0156948471548191 -0.0864583648876593
  3.8178503251901450  6.8772788440825874  1.2803807135001506
  2.6923128061122337  4.8775035009704579 11.0667572878211402
  5.8850832495154668  5.0410794585931082  9.4217102793567751
  4.8444030571583330  3.5767180010628916  0.3211288997751982
  4.0930139511658243  1.4529739965192938 -0.3706208610723993
  6.0650830226586114  0.3386721349336690  0.4592087278090085
  7.1176394272397463  8.9278633373433642 10.4870540525376015
 10.0603930121476246  1.8538925637092087  6.0391308254846239
 10.8424209833025849  0.5263114665454303  7.7983621888987962
