O  Ti
 1.0000000000000000
     9.0281697701894235    0.0000000000000000    0.0000000000000000
     0.0000000000000000    9.0281697701894235    0.0000000000000000
     0.0000000000000000    0.0000000000000000    9.0281697701894235
 O   Ti 
  32  16
Cartesian
  5.4639904877661234  2.0755779101926013  1.9897286313425147
  2.6072754038223698  1.6392131769170482  2.6264745456491747
  7.5822796756316890  3.4444704326590658  2.1359457530333792
  2.5875159652399997  7.7867844438439739  2.4766545391549868
  0.1663636476821875  0.7352382713802195  1.7503111399427245
  7.6078346706300009  5.9586822279946912  1.1541311150622442
  7.6282733199403605  5.3996071368636649  4.1652948169409578
  4.0826477774679493  3.6629768248343768  4.1762724014939065
  4.7877867136952235  0.6590071888173425  4.4290973272229790
  5.0674748864331862  5.6593511624465815  2.6134193494893831
  2.8387428370576160  4.7732509515111525  6.7772102132315988
  4.7792234524661001  9.3091387989770453  8.1867838325438420
  1.7685570458248843  5.1680986307883758  3.0928737417139618
  0.9413196438575007  6.9634100500980720  8.0407465310041406
  0.6905957810082687  3.4039425836836372  5.1545829222167407
  8.1252890210000714  1.4467283116690441  6.2865007460427416
  7.2530946927666218  1.6760221304436693  8.7183117871918068
  5.9961030558830748  2.5917605322677000  5.7171452448096920
  6.6222218915455411  8.7202817209308474  1.2572451378134251
  3.0818884773226749  2.1392317230670219  6.2012522982113980
  3.0953214211509068  7.9128008910101002  6.2760309281340083
  1.4778307817168232  0.5696855959630065 -1.6195157844186343
  5.3098331654706250  5.5100515720709353  5.8571185392434995
  7.5885178854261017  4.7555932182699472  7.2007025644998981
  7.4556111825187532  1.1211649135194424  3.5834185370310383
  6.7689693330864964  7.9409275134381723  5.2294968485051188
  5.1521917457074675  3.4579549557140048  7.8405193962675197
  7.2207098060470036  7.2624937669657692  7.7076528644969482
  3.2058219451598129  5.6986494361124773  0.6250269692825192
  0.6526456663914519  4.5158539223769845 -0.2261390536499128
  1.1109915682301337  9.2771316659055607  4.7730518505808561
  9.6389830335367392  6.4463661395542449  5.4553123141087072
  6.7901580427832986  5.0362190791540344  2.5038330291811306
  6.5398328450464067  0.7686095445346786  5.0213312241820711
  4.2712563351822066  2.0540754454006414  3.2931469315317257
  6.7721533541034953  2.9857633787732341  7.3587831894706026
  7.3657900237127967  1.5911456788548473  1.7844739274008499
  8.3539608230348872  5.8625363802603303  8.5490387634655356
  1.3231706219288277  7.8905743158071342  6.3550255022632482
  6.8763985209486505  6.2715789299723861  5.9136172273746688
  1.5006795392947470  0.2549747993944945  2.8175946713191142
  0.4968460697855031  4.9941646848578216  4.3475374438626035
  3.2500225886801433  6.0747487017110195  2.3783392604510292
  6.5531318646715064  8.9076083260775931 -0.4332098799257080
  2.0899599690773822  5.4281964668915030  8.2635370415673979
  0.8210029146203213  1.7236058044499756  5.9215189419533658
  4.2771791946913291  3.8381699615596911  6.0160448165478675
  3.3836755261668809  0.5804597318989047  7.0625619932667671
