O  In O  In O  In O  In O  In O  In O  In O  In O  In O  In O  In
 1.0000000000000000
     8.6733404368690010    0.0000000000000000    0.0000000000000000
     0.0000000000000000    8.6733404368690010    0.0000000000000000
     0.0000000000000000    0.0000000000000000    8.6733404368690010
 O   In  O   In  O   In  O   In  O   In  O   In  O   In  O   In  O   In  O   In  O   In 
   1   1   2   1   2   1   6   1   4   1   1   1   1   1   3   3   2   2   1   1   1   3
Cartesian
  0.4135280513934134  3.3280872308046798  1.2093611220384011
  0.8501587200283790  6.3873430039296784  6.1941077190717193
  3.1871612592258542  5.2908865867309443  7.3332678082613807
 -2.2040133220537834  6.3736212451176746  2.2575798508427352
  6.4697817643650541  4.9418570064620777  6.3905813531168514
  2.0041913487872920  5.7908686465891748  2.3362517085938963
  5.6605872484744220  5.5481059736461695  8.1845104719823176
  6.1707414285419748  8.2064391627046742  2.8161772871431179
  8.0325535182395118  5.7665709739491993  7.5396204088593874
  5.3940281544082049  9.6069700195607854  4.7437627392631789
  1.5290607098188882  8.0286644275616226  3.7608198717300527
  2.8439017498842154  3.2649859093613292  3.9094551230754440
  4.8627910153980061  2.6513987356635931  7.0258317633885703
  4.8533387873494913  8.3135632184853296  1.1516578846662147
  1.8426642485623705  7.7908271233992865  1.9066609313123690
 -1.3626497864981080  3.7368473530423980  4.4516193857497397
  4.8391487203661336  5.3575445179402408  5.0486645224001387
  2.5680555144677157  8.7264723135849103 -2.7480232322741460
  5.7517107640855594  2.1803081089332847  2.5145823615533516
  3.8422693784433490  2.1475332993789049  2.2404513620504578
 -0.4047234420185903  0.1520909378939951  9.2865860369602693
  2.8642284175175252  3.7545980988940379  5.9376556351570784
 -0.5330571524771917  1.8477202060614060  3.7562806945224727
  6.6111535894893976  7.2625590953499817  0.1285682820698223
  4.7120204701255615  8.1641916550456912 -1.2961577087940266
  3.5992857723811245  3.2722725182383341  0.7362881074711548
  1.6834373408189243  5.3054763640046154  4.8402254769188406
  3.8488128885675272  1.3337981875907692  8.1782137923148301
  0.4953609197996101  9.6269934981210348 -1.3167955384023304
  0.3717066871127079  4.2361496161067622  3.0589239057927684
 -0.6086881329065423  8.1761928767169767  6.0934788363288739
  2.0849251747179345  2.0602776111070411  7.2661275888162216
  7.6628604143413064  1.9309892277583740 10.0081506786592485
  6.1058312483719046  1.0370616162495403  6.5814288389807833
  7.6247643779746861  2.3030693458380913  7.3480062224339617
  4.3814413074299576  7.4686713645185998 -3.0708562585855423
  2.2862475231741342  9.3739800024065243  9.2989577157040593
  5.8568279034142412  4.9796441661609796  3.3745747162688731
  2.0056338965430309  4.3169445122592327  8.8723726783578112
  1.1538836577659404  9.8235727070895926  4.4816610458530857
Cartesian
  0.0052519268596613  0.0202687556780363 -0.0051051391465424
  0.0014312276539046 -0.0122982094213584  0.0044451597121295
  0.0157367091800181  0.0052927383580089  0.0253670466795811
 -0.0015541778156204 -0.0194180825644312 -0.0078040451779809
  0.0006492195995765 -0.0038754145363920  0.0048518518652126
 -0.0127979322705786  0.0237265697940423 -0.0104313926175962
 -0.0064123467383928  0.0109349948919509 -0.0010845687318903
 -0.0097269636850105 -0.0002401473481928  0.0036104430421288
 -0.0033304616968859  0.0054320367941163  0.0231945330973153
  0.0021976296213966 -0.0088343181928635 -0.0197131294644297
 -0.0127044691346309 -0.0002686357814206 -0.0082539858391333
  0.0042190467458207 -0.0184603027073773  0.0045851956613837
 -0.0151386614203800  0.0183582296283432  0.0038106838347334
  0.0122747256940601  0.0227003841395308 -0.0021702657704690
  0.0008979426138261  0.0031074913314206 -0.0040372112444926
 -0.0081166608339278 -0.0047776232077178  0.0172386623257533
  0.0039378453835630 -0.0129154489711174  0.0200551647514927
  0.0168931536401169  0.0226697077412136 -0.0195441023939518
  0.0010756164405325  0.0161351510825376  0.0076093005625042
  0.0008609446696131  0.0030051686831337  0.0035075612182758
 -0.0079125601992127 -0.0009449968006891  0.0006330883763691
  0.0077555125775260 -0.0008467804422780 -0.0008953864040825
 -0.0053000354002327 -0.0066926111584852 -0.0029852446711688
  0.0021773026660873 -0.0022707820556754  0.0018476257207678
  0.0078813960200058 -0.0123984499045433 -0.0072270337479472
  0.0019862492222051 -0.0078574563750471  0.0041378269907107
 -0.0011125622872199  0.0051623901040574  0.0115748966324641
  0.0095772310066140 -0.0023092655435271  0.0030646170026924
 -0.0037205646331819  0.0023244321540793 -0.0051332935278556
  0.0018842335728028  0.0030882997852919 -0.0000141148401615
  0.0035621184788485 -0.0032432863311813  0.0147524996074213
 -0.0037213993560039  0.0020873521962699 -0.0113956693083766
  0.0043350371431669  0.0014219501464785 -0.0005511075064803
 -0.0119644342158390 -0.0064095826756777 -0.0067980328207493
 -0.0230358469833293 -0.0103650987066628 -0.0120786462691638
 -0.0040979932973271 -0.0079205104078245 -0.0040242013288179
 -0.0164954821425588  0.0130941413262371  0.0025968058151801
 -0.0027033142028368  0.0010236668868341 -0.0019978472060979
 -0.0000864176139918  0.0051879288660430 -0.0040513002470484
  0.0014881628390505 -0.0028636046720937  0.0056479045177518
