O  In O  In O  In O  In O  In O  In O  In O  In O  In O  In O  In
 1.0000000000000000
     8.6733404368690010    0.0000000000000000    0.0000000000000000
     0.0000000000000000    8.6733404368690010    0.0000000000000000
     0.0000000000000000    0.0000000000000000    8.6733404368690010
 O   In  O   In  O   In  O   In  O   In  O   In  O   In  O   In  O   In  O   In  O   In 
   1   1   2   1   2   1   6   1   4   1   1   1   1   1   3   3   2   2   1   1   1   3
Cartesian
  2.8408143182619474  3.3167189492813969  0.2570749592755779
  1.2774320038581140  5.5484852038819898  5.6865901207051968
  0.0370742794421161  4.2017668757896605  6.7503168083879013
  2.9402411664111661  6.7123935154980030  4.4701735927424320
  6.7894263047586199  3.9150103204277484  7.2273604710516617
  5.6157991780235976  4.7932518921062535  0.1094455137795762
  8.2827697572587109  2.5473742898079834  9.0552594628329910
  5.1094020147762729  6.2539271154717166  4.4567580994462785
  5.3643805180499005  4.8941140934988292  6.0168304727908994
  6.0438300555780584  7.9976943500097653  5.2869354549773622
  2.3403312064205961  6.3695776129086434  7.4100523405534933
  4.0476351698531108  1.3855585640951489  4.7050438148035472
  2.6281836321170426  3.7663620672414941  6.3071194703343538
  4.8136366411007874  6.7337671561949328  2.4269297227563240
  2.7430370492394722  5.7212120098510493  2.4454249461785835
  1.9431938886725786  4.0890011234868684  1.1777802068871273
  4.1127730692513031  4.2038214063664281  3.4525670654991698
  0.1747068712946120  7.8339976453314559  3.8665560934410839
  7.5015470209947690  2.2307294300353835  3.6482979353336216
  3.4498346036444181  1.2547973219751132  1.0040689276250465
  2.0517300773728331  0.6732272188408429  8.2529163106942338
  2.5787289441466430  2.9714013983870236  4.4131508486870041
  2.0654749309307698  1.5378127685919694  2.7050506218673287
  6.0478543073998594  6.7384206007981362  0.7769235591604262
  7.8184973291687685  7.7822318706635274  0.3755931141931466
  5.3527675316989178  1.7705409976275321  1.5892178116428792
  1.1913827347610766  4.4873974194385315  3.6831456679900847
  4.7735749575433877  0.4798178548806016  6.4735100421748584
  1.3843051218152747  7.3914701614781553  0.4002772120473024
  0.3753704566536181  2.9590841804289476  2.3159552351886679
  0.2088034543750411  7.3580909010527646  5.3973287518314601
  1.0844327238993918  1.4749973874275197  5.4837491674874599
  6.8531816700692092  1.0116807326819637  8.9396853790709461
  7.7399619542345439  0.6552101293055504  5.1231970685648429
  6.5498685766738829  1.7578149301007435  6.8438220491306891
  3.8227022028353139  4.9151272753903328 -1.0712746173326091
  4.9751062095787022  8.4685569931468549  8.4589634713885893
  5.5122434180237905  2.6830704524665512  3.4426365238309655
  1.2031116620476747  2.5105061864773774  7.4434628734301835
  2.1337937305581423  8.6517454775295519  4.2815497233970028
