O  In O  In O  In O  In O  In O  In O  In O  In O  In O  In O  In
 1.0000000000000000
     8.2820728695062922    0.0000000000000000    0.0000000000000000
     0.0000000000000000    8.2820728695062922    0.0000000000000000
     0.0000000000000000    0.0000000000000000    8.2820728695062922
 O   In  O   In  O   In  O   In  O   In  O   In  O   In  O   In  O   In  O   In  O   In 
   1   2   1   1   1   2   5   2   3   1   1   1   2   1   1   1   1   1   1   1   7   3
Cartesian
  3.0159409871435616  8.1198948494739707  4.2331148571644901
  3.5342227815678884  7.5562407734865280  1.8659207747700648
  5.3346032486317840  4.6237680961346586  1.4660425635020184
  7.5535634715499844  3.8633994023964795  5.2660920874603638
  3.4232491384091666  1.4330164226517339  7.4908465561186324
  7.4824483756095486  6.7786061000038833  8.2341779968220692
  4.8774396702167104  0.7615939862153216  3.6671295666803090
  6.6683006503154179  0.7466104328287875  0.4511125729085192
  2.4081493248750623  5.4253313336234488  8.1693031919960095
  3.3863181404936080  5.6380767142985873  2.4164792932731856
  5.5280289598282408  6.7901079146995444  2.6404642194021588
  6.8960020535980249  3.9260899160127396  8.2119795964363753
  1.4935558616387992  8.0181563527359554  2.3327469437658199
  0.3036765971319215  5.0993714639509520  0.3531084762468195
  3.7433114990832168  6.2533783610302311  5.7003474365669371
  8.2596115648061694  1.0069920778959038  6.8276599244272358
  5.3438647266820549  8.0768787132566473  1.4221975099210018
  1.0630661872823295  2.5734644880425344  7.5060308071826833
  1.6835814109897651  1.3433820435938049  3.9061513626150086
  6.9808950520264617  0.9003658130131971  4.6430401856036134
  7.3246082544517677  6.0230970318428945  4.0974681542349023
  7.9559447406116286  4.9094189286773107  2.1815194297665217
  5.0379694827235797  0.0821203262280675  6.7616333571265717
  7.9532222792005376  3.1392242666192582  3.1500210636347870
  5.6919177949530297  3.3951284996529170  3.4249868412402358
  2.3042697401976064  3.7466259919813769  1.1270850107806873
  5.0820158113286533  2.3563972760431162  8.0092734322341670
  6.0936467330383692  3.4963560088998569  6.5922993237038998
  2.8993180005403718  7.8209368236389025  7.0792381902764268
  0.9679376581997869  4.3613909322048858  5.8628494687244679
  8.1430886832494469  1.9364827167205021  1.7596277326589880
  1.4663805879357859  3.6360948077980297  4.1303635268578098
  0.2478307406203285  6.7034320466472330  5.2862278658954702
  3.5852153174462051  2.0595782903721895  4.6584823495075289
  5.8115248927785483  5.7184447867814301  5.4714137493524824
  7.3760591216904423  8.0919344459611882  3.8132005833067666
  3.0873631722684718  1.8129871293526150  1.6884515203324404
  4.0614956864010416  4.0802159008394190  4.3663152400412990
  7.1616465159678180  7.6002526590631474  6.5101432741103382
  1.1658872304550651  0.5272931620587851  0.1234855474107843
Cartesian
 -0.0013462289071951 -0.0118841066807924 -0.0108910444725998
  0.0010877016340370 -0.0011411759468201  0.0081299401249494
  0.0019175636113451  0.0012570357219736 -0.0005441833383972
 -0.0257714218452776  0.0032008138829030  0.0038943467370859
  0.0067425137813689 -0.0011606379972346 -0.0028097550948268
  0.0036421100048280 -0.0035745590712949 -0.0112506528569926
 -0.0062638101701171 -0.0051528309168453  0.0124341786868057
 -0.0038165888853280 -0.0018339138383750 -0.0010525973107005
  0.0020873617136440 -0.0088579242569846  0.0224360316615886
  0.0165802890180495  0.0059629427540729 -0.0097783252868366
  0.0168617753758197  0.0031967921533212  0.0071199738214127
  0.0060150058392952 -0.0083248469262425 -0.0060789319256445
 -0.0143624778826742 -0.0121124294328888 -0.0151275104548014
  0.0095875971062588 -0.0029759675736485 -0.0053841827418756
 -0.0049762890646371  0.0020595396596888  0.0103330737681989
 -0.0046651850053325 -0.0152324417012785  0.0073234806257130
 -0.0105408993399506  0.0159583211667977 -0.0152873145373801
  0.0029144333787924 -0.0136373558659498  0.0149655933669035
  0.0029785873587129 -0.0072907969615822  0.0058986757360743
  0.0018724237488025  0.0168228017249735 -0.0178186101099622
  0.0111545800357037  0.0110348198040282  0.0019994091844580
 -0.0073561991374756 -0.0019600797602429  0.0019804227989981
 -0.0077192502468915 -0.0136439912187849 -0.0175484330703749
  0.0006475709459655 -0.0052927368063693 -0.0089121873818934
 -0.0087729472637412 -0.0325129837360401 -0.0026003667943923
  0.0040503393797543 -0.0079953299120752  0.0018381751352806
 -0.0024100304879311  0.0079909494271256  0.0199797007033475
 -0.0002208393625551  0.0057623775096238  0.0012401072247058
 -0.0142479688038450  0.0228936249534879 -0.0201998067210911
 -0.0100641251100966  0.0055432733303749 -0.0043978491630278
  0.0017943836414042 -0.0129207059174642  0.0042481414510976
  0.0213196812231016  0.0107501634927826  0.0055213283656449
  0.0029531551286523  0.0028222071684400 -0.0078151914043707
 -0.0018969466510255  0.0020281755565493 -0.0213840860986520
  0.0175625669393935  0.0047473397132301 -0.0210575140127731
 -0.0148938860796086  0.0090614105698146 -0.0476091993807940
  0.0109769640879203  0.0162098365967759 -0.0039067698003087
 -0.0095853449456512  0.0022019011233550 -0.0023899159330068
 -0.0076607188078811  0.0054953209940896  0.0030459264471306
  0.0057315384213575  0.0013028070375540  0.0002023828444345
