O  In O  In O  In O  In O  In O  In O  In O  In O  In O  In O  In
 1.0000000000000000
     8.2820728695062922    0.0000000000000000    0.0000000000000000
     0.0000000000000000    8.2820728695062922    0.0000000000000000
     0.0000000000000000    0.0000000000000000    8.2820728695062922
 O   In  O   In  O   In  O   In  O   In  O   In  O   In  O   In  O   In  O   In  O   In 
   1   2   1   1   1   2   5   2   3   1   1   1   2   1   1   1   1   1   1   1   7   3
Cartesian
  2.3083736066886389  5.4731526123575840  4.2673975047607229
  0.7667337330417319  1.1489431575425346  7.9737506071511861
  6.8054321428015179  3.8509138748233664  0.2022465278656209
  2.5701342453122082  1.1046776674817433  1.8023399425432214
  6.7456302321874979  3.8366417299316273  5.3564429818776480
  7.4862150714411779  0.6032122234162699  0.8248747877723819
  4.1390250841766685  6.2933893947579769  5.3675392897974206
  3.8674778042368789  7.6192691316387160  1.0905420458547319
  3.4413192480431123  4.8405194506823248  7.1061978741035849
  8.0459002531028183  5.1116021017043316  0.8645768240336897
  5.7152888632396772  6.2076443591056920  4.2621859290047768
  3.8084810533862452  8.1414380148518255  4.1263896555428623
  6.2563403515694676  1.3278118294331342  3.4113358379243697
  3.5813380542034805  3.4820414337674737  0.3891769968616928
  1.7157304139124314  6.2504182786182101  7.4490832654062453
  7.6033316174992764  3.4672508245929921  3.4600897486510469
  7.2375973910826694  2.3316829487689730  7.0113284086611367
  5.6812549107422434  6.7480983692361765  0.7695566332185914
  4.4252900516120892  2.1807496868993459  2.9855448615641014
  3.3342328619748800  7.8227737523216572  7.3842524293502949
  6.4829950603470712  6.0474577730741661  2.4395565792691354
  0.2488457521824209  4.7589157197479510  6.3542688532721474
  0.5966774999790185  0.8267009725516126  4.3116627444360143
  8.1707177088392449  1.6411372340953865  2.5046198977837757
  3.6312069454925395  3.2978700042839200  4.7842559542507992
  0.8439443249617503  5.0136155068360244  3.0354914977117535
  0.3987860416258618  7.8380183198587758  6.6470316705298993
  6.9742059851033469  0.2903362120299252  5.1076708450863233
  2.4544818716651249  6.2433472500112988  1.1475665683137333
  1.5401309528218408  3.2476770605178626  5.7176863277991714
  1.5764825201409731  3.2991387195011357  1.6830036883299895
  5.6105474982312629  7.6485122543780326  6.3861750603991894
  5.2959501025691491  3.8947342578204158  1.7132853705914712
  2.1414473778531526  2.5958262396327263  7.5308563866383729
  8.1703634167350625  7.1775492609480080  2.8623770607999104
  5.7058949698738459  4.7308472648375313  6.8686743206850602
  5.0782991667625925  2.4515894691786713  8.2066417258596083
  7.1275380281821477  6.4150271371777308  7.5237325222755951
  4.2435014203872123  1.1724477649912679  6.1550886183767659
  1.9957695471445565  7.6469486257669343  4.1727800900290921
Cartesian
  0.0049077917092038  0.0065791226320623  0.0022160736432980
 -0.0066783187145206  0.0030793824854661 -0.0012196821744979
 -0.0042446446373757 -0.0067078397667079  0.0006381796872298
 -0.0081830078226961 -0.0013621199138255 -0.0025955169137869
  0.0001345990726623 -0.0033693961354046  0.0069766577171701
  0.0262839197668684 -0.0254228634474221 -0.0016781773642305
 -0.0007534634870756  0.0029986074459473 -0.0004735915667851
 -0.0005848516293697  0.0067639595146596  0.0069790493927956
  0.0214682616823597  0.0054779869006624  0.0082534045449044
  0.0124748711776740  0.0016154990208090  0.0106668208457635
 -0.0017157907006233  0.0080138931806281 -0.0129662065239543
 -0.0175735101298405  0.0202199672574238  0.0007148412372881
 -0.0058373186945938 -0.0072566725445820 -0.0123372981461304
  0.0005800397859479  0.0015645309576875  0.0001524867018032
 -0.0041769910177434 -0.0003503810519859  0.0057528285665703
  0.0019709901675651  0.0046461799716340 -0.0004415123222225
 -0.0138567541646194 -0.0117990615996646  0.0191490549968842
  0.0091550500055336 -0.0053422782159969  0.0021786188224679
  0.0004863098843820  0.0026907538593965 -0.0070496634925888
  0.0048077422432345  0.0067914968366825 -0.0026162721282018
  0.0036736617585808 -0.0061905551131499  0.0040399860412221
 -0.0028775077868962  0.0072710852616879 -0.0199020823546236
 -0.0223832031210890  0.0048615462144527 -0.0050365848822363
 -0.0008116533395664  0.0013238991729362 -0.0049541325438042
 -0.0054900547654815  0.0071547858855509  0.0023161218618183
  0.0061943208336616  0.0053918405724955 -0.0050652701124907
  0.0058381299781153  0.0010711827292300 -0.0027749473207182
  0.0027400724143104 -0.0052629065310383  0.0117389739627016
  0.0024876741719187  0.0099968183595042 -0.0000802791772624
  0.0028325128117669 -0.0018121003546396 -0.0040502764666927
  0.0025727908874011  0.0102419214679535  0.0036543496937779
  0.0072440346150379  0.0015621264159356 -0.0189000115960960
 -0.0234919358734826 -0.0073377218982733 -0.0014490838762620
  0.0043245630315800 -0.0002386785794347 -0.0147940339030387
 -0.0006285566510715 -0.0106731483505966 -0.0024986302054177
 -0.0081342906778252 -0.0145849552470121 -0.0132192941707450
  0.0179255083421489 -0.0113044969332068  0.0111135470348985
 -0.0076675611689352  0.0036863474923988 -0.0068206692110253
  0.0036495683067391 -0.0019464964811485  0.0032614160742102
  0.0030533089416437 -0.0018849527684049 -0.0027960612169486
