O  In O  In O  In O  In O  In O  In O  In O  In O  In O  In O  In
 1.0000000000000000
     8.6733404368690010    0.0000000000000000    0.0000000000000000
     0.0000000000000000    8.6733404368690010    0.0000000000000000
     0.0000000000000000    0.0000000000000000    8.6733404368690010
 O   In  O   In  O   In  O   In  O   In  O   In  O   In  O   In  O   In  O   In  O   In 
   1   1   2   1   2   1   6   1   4   1   1   1   1   1   3   3   2   2   1   1   1   3
Cartesian
  1.8366029253547151  2.7290284244442442  0.8844671248806975
  1.7138288976267935  6.4943460580157346  6.2091113247799647
  3.5910458681298718  7.0067138909354982  5.3699477084421634
  6.0280565140353168  8.2138766128949303  4.5539188964389412
  8.7923891375188372  3.7938353281606543  9.0052888657180201
  7.3127920041641712  2.3873770084581118  1.4919306098049274
  3.0513502875193836 -2.8129485981341884  7.9770271361056171
  5.1499525747362549  5.8928891080602908  7.6621127252991243
  5.1328493006112108  8.1791136143123495  7.4965570986463241
  4.4766982525814214 10.0958582834064075  2.5552586719423300
  1.9874995836945029  8.9101210744052910  9.4024920176510829
  1.9075215926365909  0.7266851512029638  5.0310500433238632
  5.1694182482969975  2.1597904657735558  6.4485344193113372
  0.5637753014281447  8.8728451112983855  3.2296348959488435
  2.7929310043287567  4.6404576749769744  1.6471379410053231
  6.5637759453107929 -1.9454871258930830  1.5600418542375998
  6.3995760422256307  5.2948569327140369  5.7430916666686462
 -1.4186506975381143  7.8955195982064659  1.9395247148110533
  8.9685292293852612  5.2586098984091603  1.5818117498744177
  3.6049043983086513 -0.4081941992379992 -0.0458181569023757
  2.8701852064134412  3.9226949464618226  3.4989664689602957
  5.2899207541362960  3.4958946202040329  3.7293372226500034
  5.1096198024753328  4.3257115164902329  0.5863788627167005
  6.0306493198161952  6.1781712087113263  3.6314172747279256
  3.0867208719384149  6.9322140385735551  2.5441963664711773
 10.5272018266328029  0.5551146319252614 -2.0225662250681009
  0.2046938130960632  6.0394608186520573  4.3084631391409776
  8.6295922223017865  0.9890148397538422  8.7058908582091910
  0.9406960049365224  6.8280477844832133  2.7434525121660087
  0.1620441904168589  3.9353483263142008  4.5187926118558934
 -0.0325056210019525  6.8155461039393890  7.3591556381168219
  0.3079713617447394  2.5130398208075371  7.2114276880090289
 10.9945761960239921  1.2824818831469682 11.2405435840634631
  7.5626963995876997 -0.2080128330535737  6.4832488426950583
  7.2788291447932085  2.7956763536712508  4.0149442767864105
  5.3563376217461833  2.5955460172494353 -0.0360895470554013
  1.7753021279224577  4.5545733400727624  5.3400954081721617
  7.0827013629070148  1.1732224026092597  2.8569646085428286
  2.1230338702247122  2.6762329871579995  6.4305292450745544
  4.4029096170103186  8.9185379044955209  5.7105554451100256
Cartesian
  0.0007972533129912 -0.0015219751228524  0.0058857536365094
  0.0069533649696867  0.0004131294006983  0.0122581671197495
 -0.0062567739232390  0.0102007023530889  0.0102566405952345
  0.0015670763315066 -0.0093042135623837  0.0159803395937183
  0.0002338264366259 -0.0136483532462117  0.0033475511195427
  0.0084038379894844  0.0026656395458866  0.0196727473832992
  0.0142838244057001 -0.0172521592386333 -0.0053788734657187
  0.0058054177368301 -0.0056634612740598  0.0019495642576964
 -0.0165581409786118 -0.0045803454571758  0.0128266977800683
 -0.0017355557954615  0.0154505748607530  0.0039994295898479
  0.0087599569336008 -0.0063156708870029 -0.0168992276802214
  0.0163701669439264 -0.0070743016552639  0.0080977386427945
 -0.0147560221461433  0.0060922357110667 -0.0182082229063413
 -0.0001984967525717 -0.0199270484951455 -0.0137854438058136
  0.0046017282946559  0.0115082008652435  0.0071849213656034
  0.0411721218514792 -0.0122712226604197  0.0056265106059102
 -0.0003674900042855  0.0021530409471068 -0.0023305553101528
 -0.0099206713371798 -0.0262441430397946 -0.0171297703094260
 -0.0039717906907487 -0.0191631426020074  0.0110086308287902
 -0.0069181493320295 -0.0031417408909175  0.0025689289481431
 -0.0140369464813906  0.0235761102339048  0.0061589041342622
  0.0054000471256040 -0.0008038649045475  0.0033775001916716
  0.0034676007539155 -0.0007274243146655 -0.0130421184129682
  0.0058728011289974  0.0015364657299024  0.0067835259220276
  0.0065318002812987 -0.0107511731487501  0.0005930522429774
 -0.0217069893018118  0.0043934857607672  0.0004247111623504
 -0.0061730544213432 -0.0247255234918917  0.0014922563337625
  0.0056805804921639  0.0022123858725176 -0.0000219421968821
  0.0014386345234988 -0.0025510924743235  0.0040435910731772
  0.0005585145972755 -0.0011004875525500 -0.0069186173234518
 -0.0119600064056361 -0.0146432947817192 -0.0153144219778482
  0.0222602958151346  0.0068235892373909  0.0186556546226367
  0.0071086079109775 -0.0039173368046447 -0.0007349487072831
 -0.0033801926714524 -0.0048472742192194 -0.0016196280991115
  0.0277351282205384  0.0196009847500556 -0.0233273376686315
  0.0066384123062846  0.0070675555114935  0.0040965485953988
 -0.0036456708118745 -0.0193120776329675 -0.0220665811683969
  0.0023043992451172 -0.0033956299445913 -0.0011499437860405
  0.0023504583178755 -0.0060725283133207 -0.0057051303929588
 -0.0036543366053449 -0.0014712523486404 -0.0110439680238797
